========================================================== 
File name: C:\DEGR\assets\definitions\MSRCPSP_Gen\200_20_512_5_D.def
Creation date: Wed May 03 10:48:52 CEST 2023
Website: http://imopse.ii.pwr.edu.pl/ 
Reference: 
Myszkowski P. B., Skowronski M. E., Olech L., Oslizlo K., 
Hybrid Ant Colony Optimization in solving Multi-Skill Resource-Constrained Project Scheduling Problem, 
Soft Computing, DOI: DOI 10.1007/s00500-014-1455-x 
========================================================== 
General characteristics: 
Tasks: 200
Resources: 20
Precedence relations: 503
Number of skill types: 5
========================================================== 
ResourceID 	 Salary 	 Skills 
1	 	 	52.7	 	 Q0: 1 	 
2	 	 	85.6	 	 Q4: 3 	  Q0: 1 	  Q3: 0 	  Q1: 2 	 
3	 	 	17.0	 	 Q0: 2 	  Q1: 0 	 
4	 	 	85.4	 	 Q1: 3 	  Q3: 2 	  Q4: 1 	  Q0: 0 	 
5	 	 	64.8	 	 Q2: 3 	  Q0: 0 	  Q3: 3 	  Q4: 2 	 
6	 	 	19.9	 	 Q1: 0 	  Q0: 1 	  Q4: 0 	 
7	 	 	65.6	 	 Q4: 2 	  Q3: 0 	  Q2: 2 	  Q1: 0 	 
8	 	 	82.5	 	 Q2: 2 	  Q3: 3 	 
9	 	 	48.2	 	 Q4: 2 	  Q3: 2 	  Q2: 2 	 
10	 	 	20.6	 	 Q1: 3 	  Q2: 1 	  Q3: 2 	 
11	 	 	95.9	 	 Q1: 3 	  Q4: 0 	  Q3: 1 	 
12	 	 	88.8	 	 Q1: 1 	  Q3: 3 	  Q4: 1 	  Q0: 0 	 
13	 	 	73.4	 	 Q0: 0 	  Q1: 2 	 
14	 	 	34.6	 	 Q3: 0 	  Q4: 0 	  Q1: 3 	  Q2: 2 	 
15	 	 	80.8	 	 Q1: 1 	 
16	 	 	54.2	 	 Q2: 3 	  Q3: 2 	  Q4: 0 	 
17	 	 	84.6	 	 Q4: 2 	  Q1: 2 	  Q0: 0 	  Q2: 0 	 
18	 	 	77.2	 	 Q0: 1 	  Q2: 3 	  Q1: 2 	 
19	 	 	86.0	 	 Q0: 1 	  Q2: 3 	 
20	 	 	88.2	 	 Q1: 2 	  Q0: 1 	  Q2: 1 	 
========================================================== 
TaskID 	 Duration 	 Skill 	 Predecessor IDs 
1	18	Q1:	2
2	22	Q3:	1
3	27	Q1:	0
4	10	Q2:	3
5	13	Q0:	1
6	23	Q3:	2
7	27	Q3:	3
8	25	Q4:	0
9	34	Q2:	2
10	18	Q2:	3
11	35	Q4:	1
12	40	Q3:	0
13	12	Q3:	2
14	30	Q0:	1
15	26	Q2:	3
16	28	Q3:	3
17	25	Q2:	1
18	31	Q3:	2
19	23	Q2:	0
20	13	Q3:	0
21	11	Q2:	0
22	33	Q0:	2	8	16
23	18	Q2:	2
24	22	Q1:	0
25	36	Q3:	0
26	36	Q1:	3	3
27	40	Q3:	2
28	37	Q1:	0	3
29	11	Q0:	2
30	21	Q4:	2	2	11
31	10	Q2:	2	3
32	20	Q0:	1	21
33	19	Q4:	1	27	4
34	18	Q2:	1	12	5
35	10	Q2:	0
36	17	Q2:	1	34	12
37	12	Q1:	1	8
38	32	Q4:	2	16	19	26
39	19	Q0:	1	28	23
40	12	Q0:	2	5
41	26	Q3:	2	18
42	28	Q3:	0
43	22	Q3:	3
44	29	Q4:	1
45	26	Q4:	1
46	34	Q4:	2	14
47	21	Q0:	1	45	27
48	26	Q2:	3	3
49	32	Q2:	2	38
50	39	Q3:	2	30	6
51	23	Q3:	2
52	14	Q0:	2
53	30	Q0:	0	23	41
54	13	Q3:	0	44	32
55	24	Q0:	0	37
56	18	Q3:	3	34	29
57	27	Q1:	1	29
58	32	Q1:	3	1
59	19	Q3:	2	5	43
60	35	Q3:	0	1	14	4
61	16	Q4:	3
62	21	Q2:	0	44	57	2
63	39	Q3:	2
64	16	Q3:	2
65	15	Q0:	2	3	4
66	18	Q4:	2	26	50
67	11	Q2:	1	35
68	27	Q4:	3	24	55	2
69	15	Q1:	1	24	32	5	26
70	39	Q3:	2	10	41
71	35	Q4:	0	42	60
72	13	Q4:	3	39	53
73	10	Q4:	0
74	17	Q0:	2
75	37	Q0:	2	28	55	10
76	39	Q1:	1	1	59	63
77	39	Q2:	1	71
78	16	Q1:	3	17
79	39	Q3:	1	50
80	14	Q4:	1	46
81	26	Q4:	0	42	64
82	13	Q4:	0	63	14
83	38	Q2:	1	67
84	38	Q3:	2	17
85	12	Q4:	1
86	29	Q0:	0	85	83
87	20	Q0:	2	76	83	17
88	13	Q1:	1	10	38	22
89	12	Q4:	0	75
90	18	Q4:	3	43
91	13	Q3:	1	84	33
92	13	Q3:	2	85	34	40	2
93	11	Q0:	0
94	31	Q3:	3	54	56	13	92	65
95	23	Q4:	1	18	82
96	27	Q0:	1	93	22	81
97	34	Q2:	0	21	28	10	9
98	15	Q4:	1	70	51	38
99	21	Q4:	1	61	50	90	75
100	21	Q1:	1	3	71
101	20	Q2:	0	18	55	93	24	25
102	30	Q2:	3	78
103	20	Q1:	0	67
104	16	Q4:	1	29
105	23	Q4:	2	9	21	24	31
106	33	Q1:	1	23	17	56	94
107	39	Q4:	2	53
108	30	Q3:	0	35
109	21	Q2:	1	32	28	47	2	97
110	40	Q1:	2	11	15
111	30	Q4:	3	73	67
112	16	Q4:	0	72	34	68
113	28	Q2:	2	31	42	14	90
114	11	Q2:	3	33	40	4
115	28	Q3:	2	89	68	88	78
116	24	Q1:	2	102	48	98	39	42	60	58	90	40
117	37	Q1:	0	103
118	24	Q0:	0	52	10
119	38	Q2:	1	115
120	17	Q4:	2	55
121	10	Q1:	1	26	95	10
122	35	Q3:	0	105	108	8
123	18	Q0:	1	50	11	54	47
124	20	Q1:	3	91	21	105
125	27	Q4:	1	32	18	34	63	43
126	31	Q1:	3	91	123
127	39	Q2:	1	20	4	50
128	24	Q4:	1	120	116
129	35	Q2:	3	45
130	24	Q2:	3	16
131	19	Q4:	1	74	118	59
132	14	Q0:	1	42	41	32	53	47
133	23	Q4:	3	93	121	14	25
134	10	Q1:	3	100	106	122
135	14	Q4:	1	127	46	57	86	29
136	39	Q2:	0	75	67	50	121	15
137	32	Q1:	2	55	84	85	76	68
138	27	Q0:	0
139	34	Q1:	1	31
140	22	Q2:	1	122	138	130	127
141	36	Q3:	0	109	114
142	13	Q0:	1	27	31
143	23	Q2:	3	93	106	96
144	30	Q2:	3	4	31
145	25	Q2:	0	49	28	33	36	142	26	69	2
146	37	Q2:	1	17	37	58	68
147	18	Q1:	2	78	126	9	51	127
148	21	Q0:	1	35	141	126	17	46
149	23	Q1:	2	4	55	31	146	145	88
150	15	Q3:	2	29	48	12	87	2	51
151	19	Q0:	1	71	14	81	112	21
152	39	Q2:	3	124	114	26
153	15	Q3:	2	123	35
154	27	Q2:	0	119	134
155	26	Q2:	3	52	5	110
156	15	Q1:	1	41	38	27	51	107	65	16	11
157	19	Q4:	1	112	151	136	132	39	77	44	23	29
158	32	Q2:	3	111	89	69	21
159	20	Q0:	2	18	102	125	129	99
160	14	Q1:	3	132	97	123
161	10	Q3:	1	60	131	142	70	8
162	16	Q1:	1	65	155	4	42	59	14
163	39	Q2:	0	85	11	162
164	40	Q1:	1	3	86	13	9	126	140	75
165	16	Q4:	1	122
166	27	Q0:	1	19	52	142	161	39	51
167	37	Q0:	2	78	10	119
168	25	Q2:	1	11	144	137	95
169	32	Q4:	3	153	95
170	27	Q1:	1	22	146	69	88	8	21	51	153
171	39	Q3:	1	50	114	19
172	30	Q3:	0	81	1
173	27	Q0:	0	139	75	79	98
174	12	Q2:	0	38	70	15
175	36	Q3:	2	135	107	81	14
176	10	Q3:	3	58	33
177	40	Q3:	1	156	79
178	12	Q2:	3	20	73	69	15	1	90
179	39	Q3:	3	69	109	113	11
180	17	Q0:	2	27	147
181	19	Q3:	2	121	128	36	39
182	17	Q1:	3	102	27	10	148	6	142
183	20	Q1:	3	51	90	88	112
184	18	Q1:	1	97	165	121	118	100	153
185	13	Q2:	1	76	19	120	140
186	15	Q0:	2	15	48	81	41	97	159	75	131	98
187	20	Q3:	3	31	163	153
188	24	Q2:	1	58	135	4	74
189	35	Q0:	2	100	147	159	120	72
190	22	Q4:	2	102	179	92	169
191	28	Q2:	3	59	141	6	153	145	139	8	28	165
192	20	Q0:	0	191	160	189	122	139	106	108
193	29	Q4:	3	92	89	20
194	16	Q1:	1	9	177	158	155	12
195	35	Q1:	1	39	56	115
196	39	Q2:	0	133	193	138	77	30	28	175
197	9	Q3:	1	150	58	26	105	3	76	36
198	40	Q0:	0	108	192	94	19	14	63
199	12	Q1:	0	43	161	107
200	31	Q2:	1	40	18	146	79
========================================================== 